20 10
473 16 47 75 49 97 93 41 51 62
35 64 14 88 10 18 53 4 26 41
47 44 110 28 44 33 8 98 2 12
19 139 92 107 204 7 2 17 9 38
27 33 17 85 113 17 22 71 95 108
3 28 32 39 101 65 31 133 4 29
11 2 2 21 65 86 53 179 21 155
11 144 47 2 49 11 66 21 55 7
36 19 139 94 12 16 33 65 51 18
55 3 2 16 98 67 32 90 25 37
92 54 61 16 14 56 15 30 55 47
7 57 103 46 114 13 39 84 29 3
38 51 120 117 76 152 55 20 22 20
31 37 32 40 18 39 4 40 81 11
57 84 19 110 67 66 58 41 1 4
54 22 4 52 50 38 4 5 56 59
158 26 176 13 8 87 23 154 53 2
82 40 11 16 232 23 45 59 5 45
95 27 119 11 18 6 38 45 49 10
23 27 4 9 65 19 13 248 12 138
